
  16    0


   0   9 2 3 4 5 11 12 13 14 15 
   1   4 9 8 7 6 
   7   3 10 9 8 
   3   1 7 
   5   1 6 
   4   1 16
   1   1 16
   1   1 16
  10   1 16
   4   1 16
   2   1 16
   9   1 16
   2   1 16
   1   1 16
   9   1 16
   0   0 
